50 500
433 198
389 456
216 21
133 495
262 249
208 471
402 425
156 496
245 184
299 457
465 112
259 72
145 72
387 49
317 410
129 466
273 362
415 309
462 76
159 51
374 38
461 436
351 170
242 287
52 182
223 162
313 328
468 105
495 283
245 227
444 267
134 32
413 471
281 469
8 48
369 431
205 364
423 402
343 321
1 314
253 424
445 171
125 374
167 361
446 33
98 470
291 114
123 412
496 73
412 279
